Route #1: 7 12 20 32 21 13 1 8 9 14 22 27 39 48 64 57 71 78 77 89 83 90 84 97 91 85 79 73 72 65 58 53 40 41 33 42 54 49 59 66 60 74 80 92 98 99 93 81 86 75 67 61 55 56 46 45 37 31 25 18 30 36 51 50 44 29 16 28 35 43 34 24 23 10 15 2 3 4 17 5 11 6 19 26 38 47 52 63 62 70 76 69 68 82 94 95 87 96 100 88
Cost 44290
